\ Model Calcul_Borne_Inf_L
\ LP format - for model browsing. Use MPS format to capture full model detail.
Minimize
  0.3936567902565002 C2 - 3.009989738464355 C3 + 5.603673458099365 Constant
Subject To
 R0: C0 <= 6.014724254608154
 R1: C0 >= -3.985275745391846
 R2: C1 <= 8.823836326599121
 R3: C1 >= -1.1761634349823
 R4: 0.3094948530197144 C0 + 0.0461927764117718 C1 + C2
   >= 0.1512775123119354
 R5: 0.1120513449785007 C0 + 0.0167239056634667 C1 + C2
   <= 0.8762963873626642
 R6: 2.472066402435303 C0 - 3.339637041091919 C1 + C3 >= 1.378510594367981
 R7: 1.672527491119288 C0 - 2.259500293391772 C1 + C3 <= 13.64999307118254
Bounds
 C0 >= -3.995275626182556
 C1 >= -1.1861634349823
 C2 >= -2.279123792648315
 C3 >= -18.80675674438477
 Constant = 1
End
